column=10;
row=10;
Board=[|7,0,0,0,0,5,0,0,9,6|0,8,0,0,0,0,0,0,0,0|0,0,3,0,0,0,9,0,0,8|9,0,0,4,0,7,0,0,0,0|2,6,0,0,0,3,0,0,0,0|0,0,8,0,5,0,0,0,0,1|0,0,0,3,6,0,7,4,0,0|0,9,5,0,0,0,2,8,0,3|0,1,0,9,0,8,0,0,5,7|0,3,7,1,0,0,0,0,0,0|];
horizontal=[|0,1,0,0,1,0,0,0,0|0,1,0,1,0,0,1,0,0|0,0,0,0,0,0,0,1,0|1,0,0,1,0,0,1,0,0|0,0,0,1,0,0,0,0,0|0,0,0,0,0,0,0,0,0|0,0,1,0,0,0,0,0,1|1,0,0,0,0,0,0,0,0|0,0,0,0,0,0,0,1,0|0,0,0,0,0,0,0,0,0|];
vertical=[|0,0,0,0,0,0,0,0,0,0|0,1,0,1,0,0,0,0,1,0|0,0,0,1,0,1,0,1,0,0|0,0,0,0,0,0,0,0,0,1|0,0,0,0,0,0,0,0,0,0|0,1,0,1,1,0,0,0,0,0|0,0,0,0,0,0,0,0,0,0|0,0,1,0,1,0,0,0,1,0|0,0,0,0,0,0,0,0,1,0|];
